NAME: random-44-30155
TYPE: TSP
COMMENT: size=44 seed=30155
DIMENSION: 90
EDGE_WEIGHT_TYPE: EUC_2D
NODE_COORD_SECTION
+0 85 593
-0 85 593
+1 95 666
-1 874 353
+2 917 200
-2 292 614
+3 381 336
-3 21 434
+4 699 891
-4 233 155
+5 882 472
-5 175 456
+6 948 432
-6 214 544
+7 512 757
-7 885 382
+8 2 528
-8 738 756
+9 926 672
-9 797 903
+10 382 844
-10 138 181
+11 213 898
-11 578 439
+12 789 462
-12 44 33
+13 750 337
-13 589 363
+14 730 384
-14 351 543
+15 397 419
-15 599 580
+16 611 150
-16 260 48
+17 727 334
-17 784 854
+18 740 283
-18 897 935
+19 140 110
-19 814 120
+20 411 910
-20 229 935
+21 28 224
-21 875 142
+22 619 472
-22 83 726
+23 427 91
-23 785 760
+24 358 610
-24 603 998
+25 961 865
-25 985 421
+26 390 504
-26 623 123
+27 518 63
-27 619 897
+28 694 705
-28 651 213
+29 411 340
-29 896 209
+30 579 175
-30 840 269
+31 155 652
-31 61 752
+32 192 85
-32 701 261
+33 859 445
-33 687 178
+34 82 504
-34 223 449
+35 732 735
-35 200 686
+36 283 528
-36 628 247
+37 431 973
-37 836 483
+38 125 564
-38 348 740
+39 608 14
-39 260 778
+40 34 628
-40 882 887
+41 705 287
-41 33 366
+42 293 86
-42 145 288
+43 252 913
-43 946 98
+44 640 767
-44 660 122
PRECEDENCE_SECTION
+0 -0
+1 -1
+2 -2
+3 -3
+4 -4
+5 -5
+6 -6
+7 -7
+8 -8
+9 -9
+10 -10
+11 -11
+12 -12
+13 -13
+14 -14
+15 -15
+16 -16
+17 -17
+18 -18
+19 -19
+20 -20
+21 -21
+22 -22
+23 -23
+24 -24
+25 -25
+26 -26
+27 -27
+28 -28
+29 -29
+30 -30
+31 -31
+32 -32
+33 -33
+34 -34
+35 -35
+36 -36
+37 -37
+38 -38
+39 -39
+40 -40
+41 -41
+42 -42
+43 -43
+44 -44
EOF
